%%% static parameters %%%
timespan = 1;
Fact = [3];
Distr1 = [10];
Distr2 = [20];
Clients_N = [40];
Demand_W = [15];
Lt0 = [4];
Lt1 = [4];
SS_ = [0.85];
DS_D = [7];
K = [200];
MA = [500];
%%% dynamic parameters %%%
lost_ratio_sales_ret_th = 0.7826876742956809;
lost_ratio_sales_ret_w = 6;
lost_ratio_sales_dis_th = 0.9180471075281781;
lost_ratio_sales_dis_w = 43;
lost_ratio_sales_fac_th = 0.02368943658934597;
lost_ratio_sales_fac_w = 87;
stock_customer_MA_mean_relative_th = 0.6249747128015776;
stock_customer_MA_mean_relative_w = 92;
stock_distributor_MA_mean_relative_th = 0.8937133073864773;
stock_distributor_MA_mean_relative_w = 59;
stock_retailer_MA_mean_relative_th = 0.2348899767976802;
stock_retailer_MA_mean_relative_w = 11;
stock_factory_MA_mean_relative_th = 0.3297730898961466;
stock_factory_MA_mean_relative_w = 16;
